125
336
186
384
266
270
220
204
204
240
120
329
216
250
344
160
343
273
280
405
245
104
287
124
240
111
52
132
198
250
240
29
414
36
250
252
310
245
342
54
270
102
357
410
90
282
222
260
301
224
250
312
84
92
140
52
336
155
144
148
162
440
66
255
120
203
94
180
25
215
288
490
152
112
135
238
104
205
180
240
148
26
352
330
350
156
232
184
70
25
42
279
98
304
243
264
102
153
80
60
